db/data/266911205018376162841108127479921525648.z3.out
-------------------
2500.139686225
